++ opam install ocaml-glpk -e ubuntu
+ depext='clasp version 2.1.4
Reading from outYFk2n1/gringo_out
Solving...
Answer: 1
in("ocaml-glpk",1) in("base-bigarray",1) in("base-unix",1) in("ocamlfind",6) in("
OPTIMUM FOUND

Models      : 1     
  Optimum   : yes
Optimization: 0 0 1
Time        : 0.001s (Solving: 0.00s 1st Model: 0.00s Unsat: 0.00s)
CPU Time    : 0.000s
Choices     : 4
Conflicts   : 0
Restarts    : 0     

Atoms       : 1359  
Rules       : 1402   (1: 1388 2: 1 3: 10 6: 3)
Bodies      : 53    
Equivalences: 2722   (Atom=Atom: 1338 Body=Body: 25 Other: 1359)
Tight       : Yes

Variables   : 26     (Eliminated:    5 Frozen:   13)
Constraints : 24     (Binary: 87.5% Ternary:  0.0% Other: 12.5%)
Lemmas      : 0      (Binary:  0.0% Ternary:  0.0% Other:  0.0%)
  Conflict  : 0      (Average Length: 0.0) 
  Loop      : 0      (Average Length: 0.0) 
  Other     : 0      (Average Length: 0.0)
  Deleted   : 0     

Backtracks          : 0     
Backjumps           : 0      (Bounded: 0)
Skippable Levels    : 0      (Skipped: 0 Rate:   0.0%)
Max Jump Length     : 0      (Executed: 0)
Max Bound Length    : 0     
Average Jump Length : 0.0    (Executed: 0.0)
Average Bound Length: 0.0   
Average Model Length: 5.0   
/usr/share/aspcud/encodings/misc2012.lp:150:57-76: warning: atom is undefined:
  recommends(P,V,D,W)

/usr/share/aspcud/encodings/misc2012.lp:148:57-75: warning: atom is undefined:
  attribute(P,V,A,X)

/usr/share/aspcud/encodings/misc2012.lp:138:57-76: warning: atom is undefined:
  recommends(P,V,D,W)

/usr/share/aspcud/encodings/misc2012.lp:164:42-61: warning: atom is undefined:
  recommends(P,V,D,W)

/usr/share/aspcud/encodings/misc2012.lp:161:63-81: warning: atom is undefined:
  attribute(P,V,A,X)

/usr/share/aspcud/encodings/misc2012.lp:109:50-68: warning: atom is undefined:
  attribute(P,V,A,X)

/usr/share/aspcud/encodings/misc2012.lp:109:70-88: warning: atom is undefined:
  attribute(P,V,B,Y)

/usr/share/aspcud/encodings/misc2012.lp:30:22-41: warning: atom is undefined:
  recommends(P,V,D,W)

libglpk-dev'
+ echo Ubuntu depexts: clasp version 2.1.4 Reading from outYFk2n1/gringo_out Solving... Answer: 1 'in("ocaml-glpk",1)' 'in("base-bigarray",1)' 'in("base-unix",1)' 'in("ocamlfind",6)' 'in("' OPTIMUM FOUND Models : 1 Optimum : yes Optimization: 0 0 1 Time : 0.001s '(Solving:' 0.00s 1st Model: 0.00s Unsat: '0.00s)' CPU Time : 0.000s Choices : 4 Conflicts : 0 Restarts : 0 Atoms : 1359 Rules : 1402 '(1:' 1388 2: 1 3: 10 6: '3)' Bodies : 53 Equivalences: 2722 '(Atom=Atom:' 1338 Body=Body: 25 Other: '1359)' Tight : Yes Variables : 26 '(Eliminated:' 5 Frozen: '13)' Constraints : 24 '(Binary:' 87.5% Ternary: 0.0% Other: '12.5%)' Lemmas : 0 '(Binary:' 0.0% Ternary: 0.0% Other: '0.0%)' Conflict : 0 '(Average' Length: '0.0)' Loop : 0 '(Average' Length: '0.0)' Other : 0 '(Average' Length: '0.0)' Deleted : 0 Backtracks : 0 Backjumps : 0 '(Bounded:' '0)' Skippable Levels : 0 '(Skipped:' 0 Rate: '0.0%)' Max Jump Length : 0 '(Executed:' '0)' Max Bound Length : 0 Average Jump Length : 0.0 '(Executed:' '0.0)' Average Bound Length: 0.0 Average Model Length: 5.0 /usr/share/aspcud/encodings/misc2012.lp:150:57-76: warning: atom is undefined: 'recommends(P,V,D,W)' /usr/share/aspcud/encodings/misc2012.lp:148:57-75: warning: atom is undefined: 'attribute(P,V,A,X)' /usr/share/aspcud/encodings/misc2012.lp:138:57-76: warning: atom is undefined: 'recommends(P,V,D,W)' /usr/share/aspcud/encodings/misc2012.lp:164:42-61: warning: atom is undefined: 'recommends(P,V,D,W)' /usr/share/aspcud/encodings/misc2012.lp:161:63-81: warning: atom is undefined: 'attribute(P,V,A,X)' /usr/share/aspcud/encodings/misc2012.lp:109:50-68: warning: atom is undefined: 'attribute(P,V,A,X)' /usr/share/aspcud/encodings/misc2012.lp:109:70-88: warning: atom is undefined: 'attribute(P,V,B,Y)' /usr/share/aspcud/encodings/misc2012.lp:30:22-41: warning: atom is undefined: 'recommends(P,V,D,W)' libglpk-dev
+ '[' 'clasp version 2.1.4
Reading from outYFk2n1/gringo_out
Solving...
Answer: 1
in("ocaml-glpk",1) in("base-bigarray",1) in("base-unix",1) in("ocamlfind",6) in("
OPTIMUM FOUND

Models      : 1     
  Optimum   : yes
Optimization: 0 0 1
Time        : 0.001s (Solving: 0.00s 1st Model: 0.00s Unsat: 0.00s)
CPU Time    : 0.000s
Choices     : 4
Conflicts   : 0
Restarts    : 0     

Atoms       : 1359  
Rules       : 1402   (1: 1388 2: 1 3: 10 6: 3)
Bodies      : 53    
Equivalences: 2722   (Atom=Atom: 1338 Body=Body: 25 Other: 1359)
Tight       : Yes

Variables   : 26     (Eliminated:    5 Frozen:   13)
Constraints : 24     (Binary: 87.5% Ternary:  0.0% Other: 12.5%)
Lemmas      : 0      (Binary:  0.0% Ternary:  0.0% Other:  0.0%)
  Conflict  : 0      (Average Length: 0.0) 
  Loop      : 0      (Average Length: 0.0) 
  Other     : 0      (Average Length: 0.0)
  Deleted   : 0     

Backtracks          : 0     
Backjumps           : 0      (Bounded: 0)
Skippable Levels    : 0      (Skipped: 0 Rate:   0.0%)
Max Jump Length     : 0      (Executed: 0)
Max Bound Length    : 0     
Average Jump Length : 0.0    (Executed: 0.0)
Average Bound Length: 0.0   
Average Model Length: 5.0   
/usr/share/aspcud/encodings/misc2012.lp:150:57-76: warning: atom is undefined:
  recommends(P,V,D,W)

/usr/share/aspcud/encodings/misc2012.lp:148:57-75: warning: atom is undefined:
  attribute(P,V,A,X)

/usr/share/aspcud/encodings/misc2012.lp:138:57-76: warning: atom is undefined:
  recommends(P,V,D,W)

/usr/share/aspcud/encodings/misc2012.lp:164:42-61: warning: atom is undefined:
  recommends(P,V,D,W)

/usr/share/aspcud/encodings/misc2012.lp:161:63-81: warning: atom is undefined:
  attribute(P,V,A,X)

/usr/share/aspcud/encodings/misc2012.lp:109:50-68: warning: atom is undefined:
  attribute(P,V,A,X)

/usr/share/aspcud/encodings/misc2012.lp:109:70-88: warning: atom is undefined:
  attribute(P,V,B,Y)

/usr/share/aspcud/encodings/misc2012.lp:30:22-41: warning: atom is undefined:
  recommends(P,V,D,W)

libglpk-dev' '!=' '' ']'
+ sudo apt-get install -qq -y build-essential m4
Ubuntu depexts: clasp version 2.1.4 Reading from outYFk2n1/gringo_out Solving... Answer: 1 in("ocaml-glpk",1) in("base-bigarray",1) in("base-unix",1) in("ocamlfind",6) in(" OPTIMUM FOUND Models : 1 Optimum : yes Optimization: 0 0 1 Time : 0.001s (Solving: 0.00s 1st Model: 0.00s Unsat: 0.00s) CPU Time : 0.000s Choices : 4 Conflicts : 0 Restarts : 0 Atoms : 1359 Rules : 1402 (1: 1388 2: 1 3: 10 6: 3) Bodies : 53 Equivalences: 2722 (Atom=Atom: 1338 Body=Body: 25 Other: 1359) Tight : Yes Variables : 26 (Eliminated: 5 Frozen: 13) Constraints : 24 (Binary: 87.5% Ternary: 0.0% Other: 12.5%) Lemmas : 0 (Binary: 0.0% Ternary: 0.0% Other: 0.0%) Conflict : 0 (Average Length: 0.0) Loop : 0 (Average Length: 0.0) Other : 0 (Average Length: 0.0) Deleted : 0 Backtracks : 0 Backjumps : 0 (Bounded: 0) Skippable Levels : 0 (Skipped: 0 Rate: 0.0%) Max Jump Length : 0 (Executed: 0) Max Bound Length : 0 Average Jump Length : 0.0 (Executed: 0.0) Average Bound Length: 0.0 Average Model Length: 5.0 /usr/share/aspcud/encodings/misc2012.lp:150:57-76: warning: atom is undefined: recommends(P,V,D,W) /usr/share/aspcud/encodings/misc2012.lp:148:57-75: warning: atom is undefined: attribute(P,V,A,X) /usr/share/aspcud/encodings/misc2012.lp:138:57-76: warning: atom is undefined: recommends(P,V,D,W) /usr/share/aspcud/encodings/misc2012.lp:164:42-61: warning: atom is undefined: recommends(P,V,D,W) /usr/share/aspcud/encodings/misc2012.lp:161:63-81: warning: atom is undefined: attribute(P,V,A,X) /usr/share/aspcud/encodings/misc2012.lp:109:50-68: warning: atom is undefined: attribute(P,V,A,X) /usr/share/aspcud/encodings/misc2012.lp:109:70-88: warning: atom is undefined: attribute(P,V,B,Y) /usr/share/aspcud/encodings/misc2012.lp:30:22-41: warning: atom is undefined: recommends(P,V,D,W) libglpk-dev
+ sudo apt-get install -qq -y clasp version 2.1.4 Reading from outYFk2n1/gringo_out Solving... Answer: 1 'in("ocaml-glpk",1)' 'in("base-bigarray",1)' 'in("base-unix",1)' 'in("ocamlfind",6)' 'in("' OPTIMUM FOUND Models : 1 Optimum : yes Optimization: 0 0 1 Time : 0.001s '(Solving:' 0.00s 1st Model: 0.00s Unsat: '0.00s)' CPU Time : 0.000s Choices : 4 Conflicts : 0 Restarts : 0 Atoms : 1359 Rules : 1402 '(1:' 1388 2: 1 3: 10 6: '3)' Bodies : 53 Equivalences: 2722 '(Atom=Atom:' 1338 Body=Body: 25 Other: '1359)' Tight : Yes Variables : 26 '(Eliminated:' 5 Frozen: '13)' Constraints : 24 '(Binary:' 87.5% Ternary: 0.0% Other: '12.5%)' Lemmas : 0 '(Binary:' 0.0% Ternary: 0.0% Other: '0.0%)' Conflict : 0 '(Average' Length: '0.0)' Loop : 0 '(Average' Length: '0.0)' Other : 0 '(Average' Length: '0.0)' Deleted : 0 Backtracks : 0 Backjumps : 0 '(Bounded:' '0)' Skippable Levels : 0 '(Skipped:' 0 Rate: '0.0%)' Max Jump Length : 0 '(Executed:' '0)' Max Bound Length : 0 Average Jump Length : 0.0 '(Executed:' '0.0)' Average Bound Length: 0.0 Average Model Length: 5.0 /usr/share/aspcud/encodings/misc2012.lp:150:57-76: warning: atom is undefined: 'recommends(P,V,D,W)' /usr/share/aspcud/encodings/misc2012.lp:148:57-75: warning: atom is undefined: 'attribute(P,V,A,X)' /usr/share/aspcud/encodings/misc2012.lp:138:57-76: warning: atom is undefined: 'recommends(P,V,D,W)' /usr/share/aspcud/encodings/misc2012.lp:164:42-61: warning: atom is undefined: 'recommends(P,V,D,W)' /usr/share/aspcud/encodings/misc2012.lp:161:63-81: warning: atom is undefined: 'attribute(P,V,A,X)' /usr/share/aspcud/encodings/misc2012.lp:109:50-68: warning: atom is undefined: 'attribute(P,V,A,X)' /usr/share/aspcud/encodings/misc2012.lp:109:70-88: warning: atom is undefined: 'attribute(P,V,B,Y)' /usr/share/aspcud/encodings/misc2012.lp:30:22-41: warning: atom is undefined: 'recommends(P,V,D,W)' libglpk-dev
E: Unable to locate package version
E: Unable to locate package Reading
E: Unable to locate package from
E: Unable to locate package outYFk2n1
E: Unable to locate package Solving...
E: Couldn't find any package by regex 'Solving...'
E: Unable to locate package Answer
E: Unable to locate package 1
E: Unable to locate package in("ocaml-glpk",1)
E: Unable to locate package in("base-bigarray",1)
E: Unable to locate package in("base-unix",1)
E: Unable to locate package in("ocamlfind",6)
E: Unable to locate package in("
E: Unable to locate package OPTIMUM
E: Unable to locate package FOUND
E: Unable to locate package Models
E: Unable to locate package 
E: Unable to locate package 1
E: Unable to locate package Optimum
E: Unable to locate package 
E: Unable to locate package yes
E: Unable to locate package Optimization
E: Unable to locate package 0
E: Unable to locate package 0
E: Unable to locate package 1
E: Unable to locate package 
E: Unable to locate package 0.001s
E: Couldn't find any package by regex '0.001s'
E: Unable to locate package (Solving
E: Unable to locate package 0.00s
E: Couldn't find any package by regex '0.00s'
E: Unable to locate package 1st
E: Unable to locate package Model
E: Unable to locate package 0.00s
E: Couldn't find any package by regex '0.00s'
E: Unable to locate package Unsat
E: Unable to locate package 0.00s)
E: Couldn't find any package by regex '0.00s)'
E: Unable to locate package 
E: Unable to locate package 0.000s
E: Couldn't find any package by regex '0.000s'
E: Unable to locate package Choices
E: Unable to locate package 
E: Unable to locate package 4
E: Unable to locate package Conflicts
E: Unable to locate package 
E: Unable to locate package 0
E: Unable to locate package Restarts
E: Unable to locate package 
E: Unable to locate package 0
E: Unable to locate package Atoms
E: Unable to locate package 
E: Unable to locate package 1359
E: Unable to locate package Rules
E: Unable to locate package 
E: Unable to locate package 1402
E: Unable to locate package (1
E: Unable to locate package 1388
E: Unable to locate package 2
E: Unable to locate package 1
E: Unable to locate package 3
E: Unable to locate package 10
E: Unable to locate package 6
E: Unable to locate package 3)
E: Unable to locate package Bodies
E: Unable to locate package 
E: Unable to locate package 53
E: Unable to locate package Equivalences
E: Unable to locate package 2722
E: Unable to locate package (Atom
E: Unable to locate package 1338
E: Unable to locate package Body
E: Unable to locate package 25
E: Unable to locate package Other
E: Unable to locate package 1359)
E: Unable to locate package Tight
E: Unable to locate package 
E: Unable to locate package Yes
E: Unable to locate package Variables
E: Unable to locate package 
E: Unable to locate package 26
E: Unable to locate package (Eliminated
E: Unable to locate package 5
E: Unable to locate package Frozen
E: Unable to locate package 13)
E: Unable to locate package Constraints
E: Unable to locate package 
E: Unable to locate package 24
E: Unable to locate package (Binary
E: Unable to locate package 87.5%
E: Couldn't find any package by regex '87.5%'
E: Unable to locate package Ternary
E: Unable to locate package 0.0%
E: Couldn't find any package by regex '0.0%'
E: Unable to locate package Other
E: Unable to locate package 12.5%)
E: Couldn't find any package by regex '12.5%)'
E: Unable to locate package Lemmas
E: Unable to locate package 
E: Unable to locate package 0
E: Unable to locate package (Binary
E: Unable to locate package 0.0%
E: Couldn't find any package by regex '0.0%'
E: Unable to locate package Ternary
E: Unable to locate package 0.0%
E: Couldn't find any package by regex '0.0%'
E: Unable to locate package Other
E: Unable to locate package 0.0%)
E: Couldn't find any package by regex '0.0%)'
E: Unable to locate package Conflict
E: Unable to locate package 
E: Unable to locate package 0
E: Unable to locate package (Average
E: Unable to locate package Length
E: Unable to locate package 0.0)
E: Couldn't find any package by regex '0.0)'
E: Unable to locate package Loop
E: Unable to locate package 
E: Unable to locate package 0
E: Unable to locate package (Average
E: Unable to locate package Length
E: Unable to locate package 0.0)
E: Couldn't find any package by regex '0.0)'
E: Unable to locate package Other
E: Unable to locate package 
E: Unable to locate package 0
E: Unable to locate package (Average
E: Unable to locate package Length
E: Unable to locate package 0.0)
E: Couldn't find any package by regex '0.0)'
E: Unable to locate package Deleted
E: Unable to locate package 
E: Unable to locate package 0
E: Unable to locate package Backtracks
E: Unable to locate package 
E: Unable to locate package 0
E: Unable to locate package Backjumps
E: Unable to locate package 
E: Unable to locate package 0
E: Unable to locate package (Bounded
E: Unable to locate package 0)
E: Unable to locate package Skippable
E: Unable to locate package Levels
E: Unable to locate package 
E: Unable to locate package 0
E: Unable to locate package (Skipped
E: Unable to locate package 0
E: Unable to locate package Rate
E: Unable to locate package 0.0%)
E: Couldn't find any package by regex '0.0%)'
E: Unable to locate package Max
E: Unable to locate package Jump
E: Unable to locate package Length
E: Unable to locate package 
E: Unable to locate package 0
E: Unable to locate package (Executed
E: Unable to locate package 0)
E: Unable to locate package Max
E: Unable to locate package Bound
E: Unable to locate package Length
E: Unable to locate package 
E: Unable to locate package 0
E: Unable to locate package Average
E: Unable to locate package Jump
E: Unable to locate package Length
E: Unable to locate package 
E: Unable to locate package (Executed
E: Unable to locate package 0.0)
E: Couldn't find any package by regex '0.0)'
E: Unable to locate package Average
E: Unable to locate package Bound
E: Unable to locate package Length
E: Unable to locate package Average
E: Unable to locate package Model
E: Unable to locate package Length
E: Unable to locate package /usr/share/aspcud/encodings
E: Unable to locate package warning
E: Unable to locate package atom
E: Unable to locate package is
E: Unable to locate package undefined
E: Unable to locate package recommends(P,V,D,W)
E: Unable to locate package /usr/share/aspcud/encodings
E: Unable to locate package warning
E: Unable to locate package atom
E: Unable to locate package is
E: Unable to locate package undefined
E: Unable to locate package attribute(P,V,A,X)
E: Unable to locate package /usr/share/aspcud/encodings
E: Unable to locate package warning
E: Unable to locate package atom
E: Unable to locate package is
E: Unable to locate package undefined
E: Unable to locate package recommends(P,V,D,W)
E: Unable to locate package /usr/share/aspcud/encodings
E: Unable to locate package warning
E: Unable to locate package atom
E: Unable to locate package is
E: Unable to locate package undefined
E: Unable to locate package recommends(P,V,D,W)
E: Unable to locate package /usr/share/aspcud/encodings
E: Unable to locate package warning
E: Unable to locate package atom
E: Unable to locate package is
E: Unable to locate package undefined
E: Unable to locate package attribute(P,V,A,X)
E: Unable to locate package /usr/share/aspcud/encodings
E: Unable to locate package warning
E: Unable to locate package atom
E: Unable to locate package is
E: Unable to locate package undefined
E: Unable to locate package attribute(P,V,A,X)
E: Unable to locate package /usr/share/aspcud/encodings
E: Unable to locate package warning
E: Unable to locate package atom
E: Unable to locate package is
E: Unable to locate package undefined
E: Unable to locate package attribute(P,V,B,Y)
E: Unable to locate package /usr/share/aspcud/encodings
E: Unable to locate package warning
E: Unable to locate package atom
E: Unable to locate package is
E: Unable to locate package undefined
E: Unable to locate package recommends(P,V,D,W)
++ opam install ocaml-glpk -e source,linux
+ srcext='clasp version 2.1.4
Reading from outUCdVN1/gringo_out
Solving...
Answer: 1
in("ocaml-glpk",1) in("base-bigarray",1) in("base-unix",1) in("ocamlfind",6) in("
OPTIMUM FOUND

Models      : 1     
  Optimum   : yes
Optimization: 0 0 1
Time        : 0.005s (Solving: 0.00s 1st Model: 0.00s Unsat: 0.00s)
CPU Time    : 0.000s
Choices     : 4
Conflicts   : 0
Restarts    : 0     

Atoms       : 1359  
Rules       : 1402   (1: 1388 2: 1 3: 10 6: 3)
Bodies      : 53    
Equivalences: 2722   (Atom=Atom: 1338 Body=Body: 25 Other: 1359)
Tight       : Yes

Variables   : 26     (Eliminated:    5 Frozen:   13)
Constraints : 24     (Binary: 87.5% Ternary:  0.0% Other: 12.5%)
Lemmas      : 0      (Binary:  0.0% Ternary:  0.0% Other:  0.0%)
  Conflict  : 0      (Average Length: 0.0) 
  Loop      : 0      (Average Length: 0.0) 
  Other     : 0      (Average Length: 0.0)
  Deleted   : 0     

Backtracks          : 0     
Backjumps           : 0      (Bounded: 0)
Skippable Levels    : 0      (Skipped: 0 Rate:   0.0%)
Max Jump Length     : 0      (Executed: 0)
Max Bound Length    : 0     
Average Jump Length : 0.0    (Executed: 0.0)
Average Bound Length: 0.0   
Average Model Length: 5.0   
/usr/share/aspcud/encodings/misc2012.lp:150:57-76: warning: atom is undefined:
  recommends(P,V,D,W)

/usr/share/aspcud/encodings/misc2012.lp:148:57-75: warning: atom is undefined:
  attribute(P,V,A,X)

/usr/share/aspcud/encodings/misc2012.lp:138:57-76: warning: atom is undefined:
  recommends(P,V,D,W)

/usr/share/aspcud/encodings/misc2012.lp:164:42-61: warning: atom is undefined:
  recommends(P,V,D,W)

/usr/share/aspcud/encodings/misc2012.lp:161:63-81: warning: atom is undefined:
  attribute(P,V,A,X)

/usr/share/aspcud/encodings/misc2012.lp:109:50-68: warning: atom is undefined:
  attribute(P,V,A,X)

/usr/share/aspcud/encodings/misc2012.lp:109:70-88: warning: atom is undefined:
  attribute(P,V,B,Y)

/usr/share/aspcud/encodings/misc2012.lp:30:22-41: warning: atom is undefined:
  recommends(P,V,D,W)'
+ echo Ubuntu srcexts: clasp version 2.1.4 Reading from outUCdVN1/gringo_out Solving... Answer: 1 'in("ocaml-glpk",1)' 'in("base-bigarray",1)' 'in("base-unix",1)' 'in("ocamlfind",6)' 'in("' OPTIMUM FOUND Models : 1 Optimum : yes Optimization: 0 0 1 Time : 0.005s '(Solving:' 0.00s 1st Model: 0.00s Unsat: '0.00s)' CPU Time : 0.000s Choices : 4 Conflicts : 0 Restarts : 0 Atoms : 1359 Rules : 1402 '(1:' 1388 2: 1 3: 10 6: '3)' Bodies : 53 Equivalences: 2722 '(Atom=Atom:' 1338 Body=Body: 25 Other: '1359)' Tight : Yes Variables : 26 '(Eliminated:' 5 Frozen: '13)' Constraints : 24 '(Binary:' 87.5% Ternary: 0.0% Other: '12.5%)' Lemmas : 0 '(Binary:' 0.0% Ternary: 0.0% Other: '0.0%)' Conflict : 0 '(Average' Length: '0.0)' Loop : 0 '(Average' Length: '0.0)' Other : 0 '(Average' Length: '0.0)' Deleted : 0 Backtracks : 0 Backjumps : 0 '(Bounded:' '0)' Skippable Levels : 0 '(Skipped:' 0 Rate: '0.0%)' Max Jump Length : 0 '(Executed:' '0)' Max Bound Length : 0 Average Jump Length : 0.0 '(Executed:' '0.0)' Average Bound Length: 0.0 Average Model Length: 5.0 /usr/share/aspcud/encodings/misc2012.lp:150:57-76: warning: atom is undefined: 'recommends(P,V,D,W)' /usr/share/aspcud/encodings/misc2012.lp:148:57-75: warning: atom is undefined: 'attribute(P,V,A,X)' /usr/share/aspcud/encodings/misc2012.lp:138:57-76: warning: atom is undefined: 'recommends(P,V,D,W)' /usr/share/aspcud/encodings/misc2012.lp:164:42-61: warning: atom is undefined: 'recommends(P,V,D,W)' /usr/share/aspcud/encodings/misc2012.lp:161:63-81: warning: atom is undefined: 'attribute(P,V,A,X)' /usr/share/aspcud/encodings/misc2012.lp:109:50-68: warning: atom is undefined: 'attribute(P,V,A,X)' /usr/share/aspcud/encodings/misc2012.lp:109:70-88: warning: atom is undefined: 'attribute(P,V,B,Y)' /usr/share/aspcud/encodings/misc2012.lp:30:22-41: warning: atom is undefined: 'recommends(P,V,D,W)'
+ '[' 'clasp version 2.1.4
Reading from outUCdVN1/gringo_out
Solving...
Answer: 1
in("ocaml-glpk",1) in("base-bigarray",1) in("base-unix",1) in("ocamlfind",6) in("
OPTIMUM FOUND

Models      : 1     
  Optimum   : yes
Optimization: 0 0 1
Time        : 0.005s (Solving: 0.00s 1st Model: 0.00s Unsat: 0.00s)
CPU Time    : 0.000s
Choices     : 4
Conflicts   : 0
Restarts    : 0     

Atoms       : 1359  
Rules       : 1402   (1: 1388 2: 1 3: 10 6: 3)
Bodies      : 53    
Equivalences: 2722   (Atom=Atom: 1338 Body=Body: 25 Other: 1359)
Tight       : Yes

Variables   : 26     (Eliminated:    5 Frozen:   13)
Constraints : 24     (Binary: 87.5% Ternary:  0.0% Other: 12.5%)
Lemmas      : 0      (Binary:  0.0% Ternary:  0.0% Other:  0.0%)
  Conflict  : 0      (Average Length: 0.0) 
  Loop      : 0      (Average Length: 0.0) 
  Other     : 0      (Average Length: 0.0)
  Deleted   : 0     

Backtracks          : 0     
Backjumps           : 0      (Bounded: 0)
Skippable Levels    : 0      (Skipped: 0 Rate:   0.0%)
Max Jump Length     : 0      (Executed: 0)
Max Bound Length    : 0     
Average Jump Length : 0.0    (Executed: 0.0)
Average Bound Length: 0.0   
Average Model Length: 5.0   
/usr/share/aspcud/encodings/misc2012.lp:150:57-76: warning: atom is undefined:
  recommends(P,V,D,W)

/usr/share/aspcud/encodings/misc2012.lp:148:57-75: warning: atom is undefined:
  attribute(P,V,A,X)

/usr/share/aspcud/encodings/misc2012.lp:138:57-76: warning: atom is undefined:
  recommends(P,V,D,W)

/usr/share/aspcud/encodings/misc2012.lp:164:42-61: warning: atom is undefined:
  recommends(P,V,D,W)

/usr/share/aspcud/encodings/misc2012.lp:161:63-81: warning: atom is undefined:
  attribute(P,V,A,X)

/usr/share/aspcud/encodings/misc2012.lp:109:50-68: warning: atom is undefined:
  attribute(P,V,A,X)

/usr/share/aspcud/encodings/misc2012.lp:109:70-88: warning: atom is undefined:
  attribute(P,V,B,Y)

/usr/share/aspcud/encodings/misc2012.lp:30:22-41: warning: atom is undefined:
  recommends(P,V,D,W)' '!=' '' ']'
++ mktemp
+ t=/tmp/tmp.sLeBGnSx2t
+ curl -sL clasp version 2.1.4 Reading from outUCdVN1/gringo_out Solving... Answer: 1 'in("ocaml-glpk",1)' 'in("base-bigarray",1)' 'in("base-unix",1)' 'in("ocamlfind",6)' 'in("' OPTIMUM FOUND Models : 1 Optimum : yes Optimization: 0 0 1 Time : 0.005s '(Solving:' 0.00s 1st Model: 0.00s Unsat: '0.00s)' CPU Time : 0.000s Choices : 4 Conflicts : 0 Restarts : 0 Atoms : 1359 Rules : 1402 '(1:' 1388 2: 1 3: 10 6: '3)' Bodies : 53 Equivalences: 2722 '(Atom=Atom:' 1338 Body=Body: 25 Other: '1359)' Tight : Yes Variables : 26 '(Eliminated:' 5 Frozen: '13)' Constraints : 24 '(Binary:' 87.5% Ternary: 0.0% Other: '12.5%)' Lemmas : 0 '(Binary:' 0.0% Ternary: 0.0% Other: '0.0%)' Conflict : 0 '(Average' Length: '0.0)' Loop : 0 '(Average' Length: '0.0)' Other : 0 '(Average' Length: '0.0)' Deleted : 0 Backtracks : 0 Backjumps : 0 '(Bounded:' '0)' Skippable Levels : 0 '(Skipped:' 0 Rate: '0.0%)' Max Jump Length : 0 '(Executed:' '0)' Max Bound Length : 0 Average Jump Length : 0.0 '(Executed:' '0.0)' Average Bound Length: 0.0 Average Model Length: 5.0 /usr/share/aspcud/encodings/misc2012.lp:150:57-76: warning: atom is undefined: 'recommends(P,V,D,W)' /usr/share/aspcud/encodings/misc2012.lp:148:57-75: warning: atom is undefined: 'attribute(P,V,A,X)' /usr/share/aspcud/encodings/misc2012.lp:138:57-76: warning: atom is undefined: 'recommends(P,V,D,W)' /usr/share/aspcud/encodings/misc2012.lp:164:42-61: warning: atom is undefined: 'recommends(P,V,D,W)' /usr/share/aspcud/encodings/misc2012.lp:161:63-81: warning: atom is undefined: 'attribute(P,V,A,X)' /usr/share/aspcud/encodings/misc2012.lp:109:50-68: warning: atom is undefined: 'attribute(P,V,A,X)' /usr/share/aspcud/encodings/misc2012.lp:109:70-88: warning: atom is undefined: 'attribute(P,V,B,Y)' /usr/share/aspcud/encodings/misc2012.lp:30:22-41: warning: atom is undefined: 'recommends(P,V,D,W)'
Ubuntu srcexts: clasp version 2.1.4 Reading from outUCdVN1/gringo_out Solving... Answer: 1 in("ocaml-glpk",1) in("base-bigarray",1) in("base-unix",1) in("ocamlfind",6) in(" OPTIMUM FOUND Models : 1 Optimum : yes Optimization: 0 0 1 Time : 0.005s (Solving: 0.00s 1st Model: 0.00s Unsat: 0.00s) CPU Time : 0.000s Choices : 4 Conflicts : 0 Restarts : 0 Atoms : 1359 Rules : 1402 (1: 1388 2: 1 3: 10 6: 3) Bodies : 53 Equivalences: 2722 (Atom=Atom: 1338 Body=Body: 25 Other: 1359) Tight : Yes Variables : 26 (Eliminated: 5 Frozen: 13) Constraints : 24 (Binary: 87.5% Ternary: 0.0% Other: 12.5%) Lemmas : 0 (Binary: 0.0% Ternary: 0.0% Other: 0.0%) Conflict : 0 (Average Length: 0.0) Loop : 0 (Average Length: 0.0) Other : 0 (Average Length: 0.0) Deleted : 0 Backtracks : 0 Backjumps : 0 (Bounded: 0) Skippable Levels : 0 (Skipped: 0 Rate: 0.0%) Max Jump Length : 0 (Executed: 0) Max Bound Length : 0 Average Jump Length : 0.0 (Executed: 0.0) Average Bound Length: 0.0 Average Model Length: 5.0 /usr/share/aspcud/encodings/misc2012.lp:150:57-76: warning: atom is undefined: recommends(P,V,D,W) /usr/share/aspcud/encodings/misc2012.lp:148:57-75: warning: atom is undefined: attribute(P,V,A,X) /usr/share/aspcud/encodings/misc2012.lp:138:57-76: warning: atom is undefined: recommends(P,V,D,W) /usr/share/aspcud/encodings/misc2012.lp:164:42-61: warning: atom is undefined: recommends(P,V,D,W) /usr/share/aspcud/encodings/misc2012.lp:161:63-81: warning: atom is undefined: attribute(P,V,A,X) /usr/share/aspcud/encodings/misc2012.lp:109:50-68: warning: atom is undefined: attribute(P,V,A,X) /usr/share/aspcud/encodings/misc2012.lp:109:70-88: warning: atom is undefined: attribute(P,V,B,Y) /usr/share/aspcud/encodings/misc2012.lp:30:22-41: warning: atom is undefined: recommends(P,V,D,W)
+ bash -ex /tmp/tmp.sLeBGnSx2t
+ opam install ocaml-glpk
clasp version 2.1.4
Reading from outntgtIB/gringo_out
Solving...
Answer: 1
in("ocaml-glpk",1) in("base-bigarray",1) in("base-unix",1) in("ocamlfind",6) in("
OPTIMUM FOUND

Models      : 1     
  Optimum   : yes
Optimization: 0 0 1
Time        : 0.002s (Solving: 0.00s 1st Model: 0.00s Unsat: 0.00s)
CPU Time    : 0.000s
Choices     : 4
Conflicts   : 0
Restarts    : 0     

Atoms       : 1359  
Rules       : 1402   (1: 1388 2: 1 3: 10 6: 3)
Bodies      : 53    
Equivalences: 2722   (Atom=Atom: 1338 Body=Body: 25 Other: 1359)
Tight       : Yes

Variables   : 26     (Eliminated:    5 Frozen:   13)
Constraints : 24     (Binary: 87.5% Ternary:  0.0% Other: 12.5%)
Lemmas      : 0      (Binary:  0.0% Ternary:  0.0% Other:  0.0%)
  Conflict  : 0      (Average Length: 0.0) 
  Loop      : 0      (Average Length: 0.0) 
  Other     : 0      (Average Length: 0.0)
  Deleted   : 0     

Backtracks          : 0     
Backjumps           : 0      (Bounded: 0)
Skippable Levels    : 0      (Skipped: 0 Rate:   0.0%)
Max Jump Length     : 0      (Executed: 0)
Max Bound Length    : 0     
Average Jump Length : 0.0    (Executed: 0.0)
Average Bound Length: 0.0   
Average Model Length: 5.0   
/usr/share/aspcud/encodings/misc2012.lp:150:57-76: warning: atom is undefined:
  recommends(P,V,D,W)

/usr/share/aspcud/encodings/misc2012.lp:148:57-75: warning: atom is undefined:
  attribute(P,V,A,X)

/usr/share/aspcud/encodings/misc2012.lp:138:57-76: warning: atom is undefined:
  recommends(P,V,D,W)

/usr/share/aspcud/encodings/misc2012.lp:164:42-61: warning: atom is undefined:
  recommends(P,V,D,W)

/usr/share/aspcud/encodings/misc2012.lp:161:63-81: warning: atom is undefined:
  attribute(P,V,A,X)

/usr/share/aspcud/encodings/misc2012.lp:109:50-68: warning: atom is undefined:
  attribute(P,V,A,X)

/usr/share/aspcud/encodings/misc2012.lp:109:70-88: warning: atom is undefined:
  attribute(P,V,B,Y)

/usr/share/aspcud/encodings/misc2012.lp:30:22-41: warning: atom is undefined:
  recommends(P,V,D,W)

The following actions will be performed:
 - install   ocaml-glpk.0.1.6
=== 1 to install ===

=-=-=-=-=-=-=-=-=-=-=-=- Synchronizing package archives -=-=-=-=-=-=-=-=-=-=-=-=
[ocaml-glpk.0.1.6] Downloading http://downloads.sourceforge.net/project/ocaml-glpk/ocaml-glpk/0.1.6/ocaml-glpk-0.1.6.tar.gz
  % Total    % Received % Xferd  Average Speed   Time    Time     Time  Current
                                 Dload  Upload   Total   Spent    Left  Speed
  0     0    0     0    0     0      0      0 --:--:-- --:--:-- --:--:--     0  0     0    0     0    0     0      0      0 --:--:-- --:--:-- --:--:--     0
100 35416  100 35416    0     0  83592      0 --:--:-- --:--:-- --:--:-- 83592
200

=-=-=-=-=-=-=-=-=-=-=-=-=-=-= Installing packages -=-=-=-=-=-=-=-=-=-=-=-=-=-=-=
Building ocaml-glpk.0.1.6:
  make
  make install
make -C src byte
make[1]: Entering directory `/home/opam/.opam/4.02.0+trunk/build/ocaml-glpk.0.1.6/src'
make[2]: Entering directory `/home/opam/.opam/4.02.0+trunk/build/ocaml-glpk.0.1.6/src'
making ._bcdi/glpk.di from glpk.mli
making ._d/glpk.d from glpk.ml
make[2]: Leaving directory `/home/opam/.opam/4.02.0+trunk/build/ocaml-glpk.0.1.6/src'
make[2]: Entering directory `/home/opam/.opam/4.02.0+trunk/build/ocaml-glpk.0.1.6/src'
ocamlc -c -cc "cc" -ccopt "-fPIC -Wall -ansi -DCAML_NAME_SPACE -g \
				-DPIC   \
				    -o glpk_stubs.o " glpk_stubs.c 
glpk_stubs.c:34:18: fatal error: glpk.h: No such file or directory
 #include <glpk.h>
                  ^
compilation terminated.
make[2]: *** [glpk_stubs.o] Error 2
make[2]: Leaving directory `/home/opam/.opam/4.02.0+trunk/build/ocaml-glpk.0.1.6/src'
make[1]: *** [byte-code-library] Error 2
make[1]: Leaving directory `/home/opam/.opam/4.02.0+trunk/build/ocaml-glpk.0.1.6/src'
make: *** [byte] Error 2
Removing ocaml-glpk.0.1.6.
[ERROR] The compilation of ocaml-glpk.0.1.6 failed.
  ocamlfind remove glpk
ocamlfind: [WARNING] No such directory: /home/opam/.opam/4.02.0+trunk/lib/glpk


#================== ERROR while installing ocaml-glpk.0.1.6 ===================#
# opam-version         1.2.0~beta4
# os                   linux
# command              make
# path                 /home/opam/.opam/4.02.0+trunk/build/ocaml-glpk.0.1.6
# compiler             4.02.0+trunk
# exit-code            2
# env-file             /home/opam/.opam/4.02.0+trunk/build/ocaml-glpk.0.1.6/ocaml-glpk-348-6d07ae.env
# stdout-file          /home/opam/.opam/4.02.0+trunk/build/ocaml-glpk.0.1.6/ocaml-glpk-348-6d07ae.out
# stderr-file          /home/opam/.opam/4.02.0+trunk/build/ocaml-glpk.0.1.6/ocaml-glpk-348-6d07ae.err
### stdout ###
# ...[truncated]
# make[2]: Entering directory `/home/opam/.opam/4.02.0+trunk/build/ocaml-glpk.0.1.6/src'
# making ._bcdi/glpk.di from glpk.mli
# making ._d/glpk.d from glpk.ml
# make[2]: Leaving directory `/home/opam/.opam/4.02.0+trunk/build/ocaml-glpk.0.1.6/src'
# make[2]: Entering directory `/home/opam/.opam/4.02.0+trunk/build/ocaml-glpk.0.1.6/src'
# ocamlc -c -cc "cc" -ccopt "-fPIC -Wall -ansi -DCAML_NAME_SPACE -g \
# 				-DPIC   \
# 				    -o glpk_stubs.o " glpk_stubs.c 
# make[2]: Leaving directory `/home/opam/.opam/4.02.0+trunk/build/ocaml-glpk.0.1.6/src'
# make[1]: Leaving directory `/home/opam/.opam/4.02.0+trunk/build/ocaml-glpk.0.1.6/src'
### stderr ###
# glpk_stubs.c:34:18: fatal error: glpk.h: No such file or directory
#  #include <glpk.h>
#                   ^
# compilation terminated.
# make[2]: *** [glpk_stubs.o] Error 2
# make[1]: *** [byte-code-library] Error 2
# make: *** [byte] Error 2

'opam install ocaml-glpk' failed.
